WARNING: for repeatability, setting FPU to use double precision
============================[ Problem Statistics ]=============================
|                                                                             |
|  Number of symmetries:          33                                          |
|  Number of invertingSyms:        0                                          |
|  Number of variables:           306                                         |
|  Number of clauses:            2619                                         |
|  Parse time:                   0.00 s                                       |
|                                                                             |
============================[ Search Statistics ]==============================
| Conflicts |          ORIGINAL         |          LEARNT          | Progress |
|           |    Vars  Clauses Literals |    Limit  Clauses Lit/Cl |          |
===============================================================================
|       100 |     306     2619     5508 |      960      100    113 |  0.001 % |
|       250 |     306     2619     5508 |     1056      250     87 |  0.001 % |
|       475 |     306     2619     5508 |     1161      475     94 |  0.001 % |
|       812 |     306     2619     5508 |     1278      812     87 |  0.001 % |
|      1318 |     306     2619     5508 |     1405      665     69 |  0.001 % |
|      2077 |     306     2619     5508 |     1546     1424     70 |  0.001 % |
|      3216 |     306     2619     5508 |     1701     1681     71 |  0.001 % |
|      4924 |     306     2619     5508 |     1871     1530     79 |  0.001 % |
|      7486 |     306     2619     5508 |     2058     2049    124 |  0.001 % |
|     11330 |     306     2619     5508 |     2264     1560    127 |  0.001 % |
|     17096 |     306     2619     5508 |     2490     1409    127 |  0.001 % |
|     25745 |     306     2619     5508 |     2739     2187    126 |  0.001 % |
|     38719 |     306     2619     5508 |     3013     2085     85 |  0.001 % |
|     58180 |     306     2619     5508 |     3315     2429    125 |  0.001 % |
|     87372 |     306     2619     5508 |     3646     2175    103 |  0.001 % |
|    131161 |     306     2619     5508 |     4011     2112     96 |  0.001 % |
|    196845 |     306     2619     5508 |     4412     3633     97 |  0.001 % |
|    295371 |     306     2619     5508 |     4853     4216    123 |  0.001 % |
|    443160 |     306     2619     5508 |     5339     4484    111 |  0.001 % |
|    664843 |     306     2619     5508 |     5873     3219    129 |  0.001 % |
|    997368 |     306     2619     5508 |     6460     4073    117 |  0.001 % |
|   1496156 |     306     2619     5508 |     7106     6410    103 |  0.001 % |
|   2244338 |     306     2619     5508 |     7817     4437     92 |  0.001 % |
|   3366612 |     306     2619     5508 |     8598     5255    112 |  0.019 % |
|   5050023 |     306     2619     5508 |     9458     7807    103 |  0.001 % |
|   7575139 |     306     2619     5508 |    10404     5113    118 |  0.001 % |
|  11362814 |     306     2619     5508 |    11445     8479    153 |  0.001 % |
|  17044326 |     306     2619     5508 |    12589    11353    114 |  0.001 % |
|  25566595 |     306     2619     5508 |    13848    12316    120 |  0.001 % |
|  38349998 |     306     2619     5508 |    15233     7621    115 |  0.001 % |
|  57525103 |     306     2619     5508 |    16756     8375    130 |  0.001 % |
===============================================================================
restarts              : 82243
conflicts             : 64097721       (12608 /sec)
symconflicts          : 6007274        (1182 /sec)
decisions             : 105314598      (0.00 % random) (20716 /sec)
propagations          : 1226121441     (241184 /sec)
sympropagations       : 27260034       (5362 /sec)
conflict literals     : 8041831789     (7.73 % deleted)
Memory used           : 84.00 MB
CPU time              : 5083.75 s

INDETERMINATE
